tileCount = 168;
length1 = 21;
width = 8;
tileCountWRotation = 26;
numOfTypes = 4;
TilesCardinality = [8, 4, 18, 10, 14, 8, 6, 6, 8, 6, 6, 10, 4, 2, 2, 2, 2, 4, 12, 16, 4, 2, 2, 8, 2, 2];
TypeOfTiles	= [|F, P, T, P
|P, F, F, F
|P, F, F, P
|F, F, T, F
|F, T, T, F
|F, T, T, T
|P, F, T, P
|P, P, T, F
|P, P, F, P
|P, P, T, P
|P, T, T, T
|P, P, T, T
|F, F, F, R
|R, R, P, P
|R, R, T, T
|R, P, R, T
|R, F, R, P
|F, F, R, R
|F, T, F, T
|P, F, P, F
|R, F, R, F
|R, P, R, P
|R, T, R, T
|F, F, F, F
|T, T, T, T
|P, P, P, P|];
